TOUR_SECTION
1
110
91
104
158
112
29
74
57
154
192
9
155
179
24
109
103
144
129
44
84
118
95
147
28
10
59
17
30
116
33
162
189
98
124
194
165
15
72
138
52
81
67
38
170
65
45
75
120
80
106
201
126
56
41
16
135
195
89
87
136
139
113
23
172
128
47
108
2
152
7
182
82
36
149
150
177
121
70
187
18
62
151
117
63
199
53
92
86
85
42
27
146
64
76
178
43
54
132
93
14
156
105
79
6
83
5
49
69
12
145
190
180
37
39
119
159
100
173
66
168
163
175
183
140
35
60
50
197
125
133
90
31
102
188
34
160
200
131
142
174
115
143
157
61
171
184
137
51
13
11
196
21
78
32
20
193
25
148
130
169
26
186
96
4
134
19
153
111
40
101
3
164
22
46
122
58
73
176
166
185
191
127
48
55
107
71
114
181
68
99
77
88
94
141
97
8
123
161
167
198
-1
EOF